(set-info :source |printed by MathSAT|)
(declare-fun |!{$(in_main#0)<a>}| () Int)
(declare-fun |!{$(in_main#0)<a>}.next| () Int)
(declare-fun |!{$(in_main#0)<i>}| () Int)
(declare-fun |!{$(in_main#0)<i>}.next| () Int)
(declare-fun |!{$(in_main#0)<x>}| () Int)
(declare-fun |!{$(in_main#0)<x>}.next| () Int)
(declare-fun |!{$(in_main#0)<a1.1>}| () (Array Int Int))
(declare-fun |!{$(in_main#0)<a1.1>}.next| () (Array Int Int))
(declare-fun |!{$(in_main#0)<a2.2>}| () (Array Int Int))
(declare-fun |!{$(in_main#0)<a2.2>}.next| () (Array Int Int))
(declare-fun |!{$(in_main#0)<a3.3>}| () (Array Int Int))
(declare-fun |!{$(in_main#0)<a3.3>}.next| () (Array Int Int))
(declare-fun |!{$(in_main#0)<a4.4>}| () (Array Int Int))
(declare-fun |!{$(in_main#0)<a4.4>}.next| () (Array Int Int))
(declare-fun |!{$(in_main#0)<N>}| () Int)
(declare-fun |!{$(in_main#0)<N>}.next| () Int)
(declare-fun |!{$(in_main#0)<$(in___VERIFIER_nondet_int#0)<h#<__VERIFIER_nondet_int.return>>>}| () Int)
(declare-fun |!{$(in_main#0)<$(in___VERIFIER_nondet_int#1)<h#<__VERIFIER_nondet_int.return>>>}| () Int)
(declare-fun !pc () Int)
(declare-fun !pc.next () Int)
(declare-fun |%{$(in_main#0)<i>}#1| () Int)
(declare-fun |%{$(in_main#0)<x>}#1| () Int)
(declare-fun |%{$(in_main#0)<a1.1>}#1| () (Array Int Int))
(declare-fun |%{$(in_main#0)<a2.2>}#1| () (Array Int Int))
(declare-fun |%{$(in_main#0)<a3.3>}#1| () (Array Int Int))
(declare-fun |%{$(in_main#0)<a4.4>}#1| () (Array Int Int))
(define-fun .def_40 () Int (! !pc :next !pc.next))
(define-fun .def_43 () Bool (! (= .def_40 2) :init true))
(define-fun .def_236 () Bool (= .def_40 32))
(define-fun .def_212 () Bool (= !pc.next 53))
(define-fun .def_239 () Bool (and .def_212 .def_236))
(define-fun .def_8 () Int (! |!{$(in_main#0)<a>}| :next |!{$(in_main#0)<a>}.next|))
(define-fun .def_22 () Int (! |!{$(in_main#0)<N>}| :next |!{$(in_main#0)<N>}.next|))
(define-fun .def_219 () Bool (<= .def_22 .def_8))
(define-fun .def_184 () Bool (= |!{$(in_main#0)<i>}.next| 0))
(define-fun .def_88 () Bool (= .def_8 |!{$(in_main#0)<a>}.next|))
(define-fun .def_185 () Bool (and .def_88 .def_184))
(define-fun .def_12 () Int (! |!{$(in_main#0)<x>}| :next |!{$(in_main#0)<x>}.next|))
(define-fun .def_92 () Bool (= .def_12 |!{$(in_main#0)<x>}.next|))
(define-fun .def_186 () Bool (and .def_92 .def_185))
(define-fun .def_14 () (Array Int Int) (! |!{$(in_main#0)<a1.1>}| :next |!{$(in_main#0)<a1.1>}.next|))
(define-fun .def_94 () Bool (= .def_14 |!{$(in_main#0)<a1.1>}.next|))
(define-fun .def_187 () Bool (and .def_94 .def_186))
(define-fun .def_16 () (Array Int Int) (! |!{$(in_main#0)<a2.2>}| :next |!{$(in_main#0)<a2.2>}.next|))
(define-fun .def_96 () Bool (= .def_16 |!{$(in_main#0)<a2.2>}.next|))
(define-fun .def_188 () Bool (and .def_96 .def_187))
(define-fun .def_18 () (Array Int Int) (! |!{$(in_main#0)<a3.3>}| :next |!{$(in_main#0)<a3.3>}.next|))
(define-fun .def_98 () Bool (= .def_18 |!{$(in_main#0)<a3.3>}.next|))
(define-fun .def_189 () Bool (and .def_98 .def_188))
(define-fun .def_20 () (Array Int Int) (! |!{$(in_main#0)<a4.4>}| :next |!{$(in_main#0)<a4.4>}.next|))
(define-fun .def_100 () Bool (= .def_20 |!{$(in_main#0)<a4.4>}.next|))
(define-fun .def_190 () Bool (and .def_100 .def_189))
(define-fun .def_102 () Bool (= .def_22 |!{$(in_main#0)<N>}.next|))
(define-fun .def_191 () Bool (and .def_102 .def_190))
(define-fun .def_235 () Bool (and .def_191 .def_219))
(define-fun .def_240 () Bool (and .def_235 .def_239))
(define-fun .def_74 () Bool (= !pc.next 32))
(define-fun .def_237 () Bool (and .def_74 .def_236))
(define-fun .def_221 () (Array Int Int) (store .def_14 .def_8 |!{$(in_main#0)<$(in___VERIFIER_nondet_int#1)<h#<__VERIFIER_nondet_int.return>>>}|))
(define-fun .def_228 () Bool (= |!{$(in_main#0)<a1.1>}.next| .def_221))
(define-fun .def_223 () Int (* (- 1) |!{$(in_main#0)<a>}.next|))
(define-fun .def_224 () Int (+ .def_8 .def_223))
(define-fun .def_225 () Bool (= .def_224 (- 1)))
(define-fun .def_10 () Int (! |!{$(in_main#0)<i>}| :next |!{$(in_main#0)<i>}.next|))
(define-fun .def_90 () Bool (= .def_10 |!{$(in_main#0)<i>}.next|))
(define-fun .def_226 () Bool (and .def_90 .def_225))
(define-fun .def_227 () Bool (and .def_92 .def_226))
(define-fun .def_229 () Bool (and .def_227 .def_228))
(define-fun .def_230 () Bool (and .def_96 .def_229))
(define-fun .def_231 () Bool (and .def_98 .def_230))
(define-fun .def_232 () Bool (and .def_100 .def_231))
(define-fun .def_233 () Bool (and .def_102 .def_232))
(define-fun .def_220 () Bool (not .def_219))
(define-fun .def_234 () Bool (and .def_220 .def_233))
(define-fun .def_238 () Bool (and .def_234 .def_237))
(define-fun .def_241 () Bool (or .def_238 .def_240))
(define-fun .def_211 () Bool (= .def_40 53))
(define-fun .def_195 () Bool (= !pc.next 67))
(define-fun .def_215 () Bool (and .def_195 .def_211))
(define-fun .def_143 () Bool (<= .def_22 .def_10))
(define-fun .def_192 () Bool (and .def_143 .def_191))
(define-fun .def_216 () Bool (and .def_192 .def_215))
(define-fun .def_213 () Bool (and .def_211 .def_212))
(define-fun .def_202 () Int (select .def_14 .def_10))
(define-fun .def_203 () (Array Int Int) (store .def_16 .def_10 .def_202))
(define-fun .def_204 () Bool (= |!{$(in_main#0)<a2.2>}.next| .def_203))
(define-fun .def_148 () Int (* (- 1) |!{$(in_main#0)<i>}.next|))
(define-fun .def_149 () Int (+ .def_10 .def_148))
(define-fun .def_150 () Bool (= .def_149 (- 1)))
(define-fun .def_151 () Bool (and .def_88 .def_150))
(define-fun .def_152 () Bool (and .def_92 .def_151))
(define-fun .def_153 () Bool (and .def_94 .def_152))
(define-fun .def_205 () Bool (and .def_153 .def_204))
(define-fun .def_206 () Bool (and .def_98 .def_205))
(define-fun .def_207 () Bool (and .def_100 .def_206))
(define-fun .def_208 () Bool (and .def_102 .def_207))
(define-fun .def_144 () Bool (not .def_143))
(define-fun .def_209 () Bool (and .def_144 .def_208))
(define-fun .def_214 () Bool (and .def_209 .def_213))
(define-fun .def_217 () Bool (or .def_214 .def_216))
(define-fun .def_194 () Bool (= .def_40 67))
(define-fun .def_170 () Bool (= !pc.next 81))
(define-fun .def_198 () Bool (and .def_170 .def_194))
(define-fun .def_199 () Bool (and .def_192 .def_198))
(define-fun .def_196 () Bool (and .def_194 .def_195))
(define-fun .def_177 () Int (select .def_16 .def_10))
(define-fun .def_178 () (Array Int Int) (store .def_18 .def_10 .def_177))
(define-fun .def_179 () Bool (= |!{$(in_main#0)<a3.3>}.next| .def_178))
(define-fun .def_154 () Bool (and .def_96 .def_153))
(define-fun .def_180 () Bool (and .def_154 .def_179))
(define-fun .def_181 () Bool (and .def_100 .def_180))
(define-fun .def_182 () Bool (and .def_102 .def_181))
(define-fun .def_183 () Bool (and .def_144 .def_182))
(define-fun .def_197 () Bool (and .def_183 .def_196))
(define-fun .def_200 () Bool (or .def_197 .def_199))
(define-fun .def_169 () Bool (= .def_40 81))
(define-fun .def_132 () Bool (= !pc.next 95))
(define-fun .def_173 () Bool (and .def_132 .def_169))
(define-fun .def_160 () Bool (= |!{$(in_main#0)<x>}.next| 0))
(define-fun .def_105 () Bool (and .def_88 .def_90))
(define-fun .def_161 () Bool (and .def_105 .def_160))
(define-fun .def_162 () Bool (and .def_94 .def_161))
(define-fun .def_163 () Bool (and .def_96 .def_162))
(define-fun .def_164 () Bool (and .def_98 .def_163))
(define-fun .def_165 () Bool (and .def_100 .def_164))
(define-fun .def_166 () Bool (and .def_102 .def_165))
(define-fun .def_167 () Bool (and .def_143 .def_166))
(define-fun .def_174 () Bool (and .def_167 .def_173))
(define-fun .def_171 () Bool (and .def_169 .def_170))
(define-fun .def_145 () Int (select .def_18 .def_10))
(define-fun .def_146 () (Array Int Int) (store .def_20 .def_10 .def_145))
(define-fun .def_156 () Bool (= |!{$(in_main#0)<a4.4>}.next| .def_146))
(define-fun .def_155 () Bool (and .def_98 .def_154))
(define-fun .def_157 () Bool (and .def_155 .def_156))
(define-fun .def_158 () Bool (and .def_102 .def_157))
(define-fun .def_159 () Bool (and .def_144 .def_158))
(define-fun .def_172 () Bool (and .def_159 .def_171))
(define-fun .def_175 () Bool (or .def_172 .def_174))
(define-fun .def_136 () Bool (= !pc.next 0))
(define-fun .def_127 () Bool (= .def_40 95))
(define-fun .def_137 () Bool (and .def_127 .def_136))
(define-fun .def_77 () Bool (<= .def_22 .def_12))
(define-fun .def_118 () Bool (and .def_77 .def_88))
(define-fun .def_119 () Bool (and .def_90 .def_118))
(define-fun .def_120 () Bool (and .def_92 .def_119))
(define-fun .def_121 () Bool (and .def_94 .def_120))
(define-fun .def_122 () Bool (and .def_96 .def_121))
(define-fun .def_123 () Bool (and .def_98 .def_122))
(define-fun .def_124 () Bool (and .def_100 .def_123))
(define-fun .def_125 () Bool (and .def_102 .def_124))
(define-fun .def_138 () Bool (and .def_125 .def_137))
(define-fun .def_133 () Bool (and .def_127 .def_132))
(define-fun .def_107 () Int (* (- 1) |!{$(in_main#0)<x>}.next|))
(define-fun .def_108 () Int (+ .def_12 .def_107))
(define-fun .def_109 () Bool (= .def_108 (- 1)))
(define-fun .def_110 () Bool (and .def_105 .def_109))
(define-fun .def_111 () Bool (and .def_94 .def_110))
(define-fun .def_112 () Bool (and .def_96 .def_111))
(define-fun .def_113 () Bool (and .def_98 .def_112))
(define-fun .def_114 () Bool (and .def_100 .def_113))
(define-fun .def_115 () Bool (and .def_102 .def_114))
(define-fun .def_80 () Int (select .def_20 .def_12))
(define-fun .def_79 () Int (select .def_14 .def_12))
(define-fun .def_81 () Bool (= .def_79 .def_80))
(define-fun .def_82 () Int (ite .def_81 1 0))
(define-fun .def_83 () Bool (= .def_82 0))
(define-fun .def_84 () Bool (not .def_83))
(define-fun .def_116 () Bool (and .def_84 .def_115))
(define-fun .def_78 () Bool (not .def_77))
(define-fun .def_117 () Bool (and .def_78 .def_116))
(define-fun .def_134 () Bool (and .def_117 .def_133))
(define-fun .def_129 () Bool (= !pc.next 115))
(define-fun .def_130 () Bool (and .def_127 .def_129))
(define-fun .def_89 () Bool (and .def_83 .def_88))
(define-fun .def_91 () Bool (and .def_89 .def_90))
(define-fun .def_93 () Bool (and .def_91 .def_92))
(define-fun .def_95 () Bool (and .def_93 .def_94))
(define-fun .def_97 () Bool (and .def_95 .def_96))
(define-fun .def_99 () Bool (and .def_97 .def_98))
(define-fun .def_101 () Bool (and .def_99 .def_100))
(define-fun .def_103 () Bool (and .def_101 .def_102))
(define-fun .def_104 () Bool (and .def_78 .def_103))
(define-fun .def_131 () Bool (and .def_104 .def_130))
(define-fun .def_135 () Bool (or .def_131 .def_134))
(define-fun .def_139 () Bool (or .def_135 .def_138))
(define-fun .def_75 () Bool (and .def_43 .def_74))
(define-fun .def_71 () Bool (= |!{$(in_main#0)<N>}.next| |!{$(in_main#0)<$(in___VERIFIER_nondet_int#0)<h#<__VERIFIER_nondet_int.return>>>}|))
(define-fun .def_69 () Bool (= |!{$(in_main#0)<a4.4>}.next| |%{$(in_main#0)<a4.4>}#1|))
(define-fun .def_67 () Bool (= |!{$(in_main#0)<a3.3>}.next| |%{$(in_main#0)<a3.3>}#1|))
(define-fun .def_65 () Bool (= |!{$(in_main#0)<a2.2>}.next| |%{$(in_main#0)<a2.2>}#1|))
(define-fun .def_63 () Bool (= |!{$(in_main#0)<a1.1>}.next| |%{$(in_main#0)<a1.1>}#1|))
(define-fun .def_61 () Bool (= |!{$(in_main#0)<x>}.next| |%{$(in_main#0)<x>}#1|))
(define-fun .def_59 () Bool (= |!{$(in_main#0)<i>}.next| |%{$(in_main#0)<i>}#1|))
(define-fun .def_58 () Bool (= |!{$(in_main#0)<a>}.next| 0))
(define-fun .def_60 () Bool (and .def_58 .def_59))
(define-fun .def_62 () Bool (and .def_60 .def_61))
(define-fun .def_64 () Bool (and .def_62 .def_63))
(define-fun .def_66 () Bool (and .def_64 .def_65))
(define-fun .def_68 () Bool (and .def_66 .def_67))
(define-fun .def_70 () Bool (and .def_68 .def_69))
(define-fun .def_72 () Bool (and .def_70 .def_71))
(define-fun .def_76 () Bool (and .def_72 .def_75))
(define-fun .def_140 () Bool (or .def_76 .def_139))
(define-fun .def_176 () Bool (or .def_140 .def_175))
(define-fun .def_201 () Bool (or .def_176 .def_200))
(define-fun .def_218 () Bool (or .def_201 .def_217))
(define-fun .def_242 () Bool (! (or .def_218 .def_241) :trans true))
(define-fun .def_141 () Bool (= .def_40 115))
(define-fun .def_243 () Bool (! (not .def_141) :invar-property 0 :invar-property-name ||))
(assert true)
